c preprocessed version of celar05, 47 vertices, 271 edges
p td 47 271
0 1
0 2
39 0
34 0
37 0
1 2
39 1
33 1
37 1
3 2
13 2
2 14
16 2
38 2
39 2
4 3
3 13
3 14
16 3
26 3
38 3
37 3
5 4
11 4
10 4
4 24
4 25
4 15
4 19
30 4
27 4
26 4
37 4
5 6
5 17
5 25
5 22
5 21
5 14
5 28
5 24
5 29
5 19
5 12
27 5
16 5
26 5
6 7
6 8
6 9
6 18
6 21
6 12
6 19
31 6
8 7
7 9
7 10
7 20
7 18
31 7
32 7
37 7
8 9
8 18
8 19
10 9
20 9
9 18
16 9
26 9
31 9
32 9
11 10
10 24
10 20
10 21
27 10
16 10
26 10
31 10
32 10
11 12
11 17
11 22
11 28
11 29
11 23
27 11
26 11
13 12
12 24
25 12
12 19
27 12
16 12
26 12
13 14
16 13
26 13
38 13
14 15
16 14
26 14
38 14
31 14
32 14
16 15
37 15
16 17
16 26
16 27
16 39
16 38
32 16
37 16
17 18
17 22
17 21
17 28
17 29
27 17
26 17
18 19
18 24
18 21
26 18
31 18
32 18
35 18
20 19
24 19
25 19
27 19
26 19
20 21
27 20
26 20
31 20
32 20
22 21
26 21
27 21
21 28
22 23
22 28
22 29
26 22
23 24
25 23
27 23
25 24
27 24
26 24
26 25
26 27
26 28
26 29
26 30
26 38
39 26
32 26
27 28
30 27
31 27
32 27
28 29
31 32
33 31
34 31
33 32
34 32
33 34
33 35
33 36
37 33
34 35
34 36
37 34
36 35
37 35
37 36
38 39
40 4
40 6
40 8
40 45
40 11
40 10
40 20
40 17
40 21
40 23
40 29
40 9
40 18
40 46
40 41
40 42
40 43
40 44
40 27
40 16
40 26
41 46
41 2
41 45
41 13
41 26
41 43
41 42
41 44
41 16
41 36
42 46
42 45
42 26
42 43
42 44
42 16
42 36
43 46
43 45
43 27
43 44
43 30
44 46
44 45
44 26
44 27
44 30
45 46
45 4
45 5
45 8
45 15
45 11
45 9
45 18
45 20
45 22
45 17
45 21
45 28
45 29
45 27
45 26
45 31
45 32
45 35
46 4
46 5
46 6
46 8
46 12
46 11
46 10
46 9
46 20
46 19
46 18
46 24
46 23
46 17
46 25
46 21
46 28
46 27
46 26
46 31
46 32
